spanning_tree/sample0.lp
minimize
4 e(0,1) + 1 e(0,2) + 5 e(1,2) + 2 e(1,4) + 1 e(1,5) + 8 e(2,3) + 1 e(2,5) + 2 e(2,6) + 3 e(3,6) + 3 e(4,5) + 6 e(5,6)

subject to
v(1,0) = 1
v(0,0) = 0
v(2,0) = 0
v(3,0) = 0
v(4,0) = 0
v(5,0) = 0
v(6,0) = 0
v(0,1) - w(1,0,0,1) - w(2,0,0,2) <= 0
w(1,0,0,1) - v(1,0) <= 0
w(1,0,0,1) - e(0,1) <= 0
w(2,0,0,2) - v(2,0) <= 0
w(2,0,0,2) - e(0,2) <= 0
v(0,2) - w(1,1,0,1) - w(2,1,0,2) <= 0
w(1,1,0,1) - v(1,1) <= 0
w(1,1,0,1) - e(0,1) <= 0
w(2,1,0,2) - v(2,1) <= 0
w(2,1,0,2) - e(0,2) <= 0
v(0,3) - w(1,2,0,1) - w(2,2,0,2) <= 0
w(1,2,0,1) - v(1,2) <= 0
w(1,2,0,1) - e(0,1) <= 0
w(2,2,0,2) - v(2,2) <= 0
w(2,2,0,2) - e(0,2) <= 0
v(0,4) - w(1,3,0,1) - w(2,3,0,2) <= 0
w(1,3,0,1) - v(1,3) <= 0
w(1,3,0,1) - e(0,1) <= 0
w(2,3,0,2) - v(2,3) <= 0
w(2,3,0,2) - e(0,2) <= 0
v(0,5) - w(1,4,0,1) - w(2,4,0,2) <= 0
w(1,4,0,1) - v(1,4) <= 0
w(1,4,0,1) - e(0,1) <= 0
w(2,4,0,2) - v(2,4) <= 0
w(2,4,0,2) - e(0,2) <= 0
v(0,6) - w(1,5,0,1) - w(2,5,0,2) <= 0
w(1,5,0,1) - v(1,5) <= 0
w(1,5,0,1) - e(0,1) <= 0
w(2,5,0,2) - v(2,5) <= 0
w(2,5,0,2) - e(0,2) <= 0
v(2,1) - w(0,0,0,2) - w(1,0,1,2) - w(3,0,2,3) - w(5,0,2,5) - w(6,0,2,6) <= 0
w(0,0,0,2) - v(0,0) <= 0
w(0,0,0,2) - e(0,2) <= 0
w(1,0,1,2) - v(1,0) <= 0
w(1,0,1,2) - e(1,2) <= 0
w(3,0,2,3) - v(3,0) <= 0
w(3,0,2,3) - e(2,3) <= 0
w(5,0,2,5) - v(5,0) <= 0
w(5,0,2,5) - e(2,5) <= 0
w(6,0,2,6) - v(6,0) <= 0
w(6,0,2,6) - e(2,6) <= 0
v(2,2) - w(0,1,0,2) - w(1,1,1,2) - w(3,1,2,3) - w(5,1,2,5) - w(6,1,2,6) <= 0
w(0,1,0,2) - v(0,1) <= 0
w(0,1,0,2) - e(0,2) <= 0
w(1,1,1,2) - v(1,1) <= 0
w(1,1,1,2) - e(1,2) <= 0
w(3,1,2,3) - v(3,1) <= 0
w(3,1,2,3) - e(2,3) <= 0
w(5,1,2,5) - v(5,1) <= 0
w(5,1,2,5) - e(2,5) <= 0
w(6,1,2,6) - v(6,1) <= 0
w(6,1,2,6) - e(2,6) <= 0
v(2,3) - w(0,2,0,2) - w(1,2,1,2) - w(3,2,2,3) - w(5,2,2,5) - w(6,2,2,6) <= 0
w(0,2,0,2) - v(0,2) <= 0
w(0,2,0,2) - e(0,2) <= 0
w(1,2,1,2) - v(1,2) <= 0
w(1,2,1,2) - e(1,2) <= 0
w(3,2,2,3) - v(3,2) <= 0
w(3,2,2,3) - e(2,3) <= 0
w(5,2,2,5) - v(5,2) <= 0
w(5,2,2,5) - e(2,5) <= 0
w(6,2,2,6) - v(6,2) <= 0
w(6,2,2,6) - e(2,6) <= 0
v(2,4) - w(0,3,0,2) - w(1,3,1,2) - w(3,3,2,3) - w(5,3,2,5) - w(6,3,2,6) <= 0
w(0,3,0,2) - v(0,3) <= 0
w(0,3,0,2) - e(0,2) <= 0
w(1,3,1,2) - v(1,3) <= 0
w(1,3,1,2) - e(1,2) <= 0
w(3,3,2,3) - v(3,3) <= 0
w(3,3,2,3) - e(2,3) <= 0
w(5,3,2,5) - v(5,3) <= 0
w(5,3,2,5) - e(2,5) <= 0
w(6,3,2,6) - v(6,3) <= 0
w(6,3,2,6) - e(2,6) <= 0
v(2,5) - w(0,4,0,2) - w(1,4,1,2) - w(3,4,2,3) - w(5,4,2,5) - w(6,4,2,6) <= 0
w(0,4,0,2) - v(0,4) <= 0
w(0,4,0,2) - e(0,2) <= 0
w(1,4,1,2) - v(1,4) <= 0
w(1,4,1,2) - e(1,2) <= 0
w(3,4,2,3) - v(3,4) <= 0
w(3,4,2,3) - e(2,3) <= 0
w(5,4,2,5) - v(5,4) <= 0
w(5,4,2,5) - e(2,5) <= 0
w(6,4,2,6) - v(6,4) <= 0
w(6,4,2,6) - e(2,6) <= 0
v(2,6) - w(0,5,0,2) - w(1,5,1,2) - w(3,5,2,3) - w(5,5,2,5) - w(6,5,2,6) <= 0
w(0,5,0,2) - v(0,5) <= 0
w(0,5,0,2) - e(0,2) <= 0
w(1,5,1,2) - v(1,5) <= 0
w(1,5,1,2) - e(1,2) <= 0
w(3,5,2,3) - v(3,5) <= 0
w(3,5,2,3) - e(2,3) <= 0
w(5,5,2,5) - v(5,5) <= 0
w(5,5,2,5) - e(2,5) <= 0
w(6,5,2,6) - v(6,5) <= 0
w(6,5,2,6) - e(2,6) <= 0
v(3,1) - w(2,0,2,3) - w(6,0,3,6) <= 0
w(2,0,2,3) - v(2,0) <= 0
w(2,0,2,3) - e(2,3) <= 0
w(6,0,3,6) - v(6,0) <= 0
w(6,0,3,6) - e(3,6) <= 0
v(3,2) - w(2,1,2,3) - w(6,1,3,6) <= 0
w(2,1,2,3) - v(2,1) <= 0
w(2,1,2,3) - e(2,3) <= 0
w(6,1,3,6) - v(6,1) <= 0
w(6,1,3,6) - e(3,6) <= 0
v(3,3) - w(2,2,2,3) - w(6,2,3,6) <= 0
w(2,2,2,3) - v(2,2) <= 0
w(2,2,2,3) - e(2,3) <= 0
w(6,2,3,6) - v(6,2) <= 0
w(6,2,3,6) - e(3,6) <= 0
v(3,4) - w(2,3,2,3) - w(6,3,3,6) <= 0
w(2,3,2,3) - v(2,3) <= 0
w(2,3,2,3) - e(2,3) <= 0
w(6,3,3,6) - v(6,3) <= 0
w(6,3,3,6) - e(3,6) <= 0
v(3,5) - w(2,4,2,3) - w(6,4,3,6) <= 0
w(2,4,2,3) - v(2,4) <= 0
w(2,4,2,3) - e(2,3) <= 0
w(6,4,3,6) - v(6,4) <= 0
w(6,4,3,6) - e(3,6) <= 0
v(3,6) - w(2,5,2,3) - w(6,5,3,6) <= 0
w(2,5,2,3) - v(2,5) <= 0
w(2,5,2,3) - e(2,3) <= 0
w(6,5,3,6) - v(6,5) <= 0
w(6,5,3,6) - e(3,6) <= 0
v(4,1) - w(1,0,1,4) - w(5,0,4,5) <= 0
w(1,0,1,4) - v(1,0) <= 0
w(1,0,1,4) - e(1,4) <= 0
w(5,0,4,5) - v(5,0) <= 0
w(5,0,4,5) - e(4,5) <= 0
v(4,2) - w(1,1,1,4) - w(5,1,4,5) <= 0
w(1,1,1,4) - v(1,1) <= 0
w(1,1,1,4) - e(1,4) <= 0
w(5,1,4,5) - v(5,1) <= 0
w(5,1,4,5) - e(4,5) <= 0
v(4,3) - w(1,2,1,4) - w(5,2,4,5) <= 0
w(1,2,1,4) - v(1,2) <= 0
w(1,2,1,4) - e(1,4) <= 0
w(5,2,4,5) - v(5,2) <= 0
w(5,2,4,5) - e(4,5) <= 0
v(4,4) - w(1,3,1,4) - w(5,3,4,5) <= 0
w(1,3,1,4) - v(1,3) <= 0
w(1,3,1,4) - e(1,4) <= 0
w(5,3,4,5) - v(5,3) <= 0
w(5,3,4,5) - e(4,5) <= 0
v(4,5) - w(1,4,1,4) - w(5,4,4,5) <= 0
w(1,4,1,4) - v(1,4) <= 0
w(1,4,1,4) - e(1,4) <= 0
w(5,4,4,5) - v(5,4) <= 0
w(5,4,4,5) - e(4,5) <= 0
v(4,6) - w(1,5,1,4) - w(5,5,4,5) <= 0
w(1,5,1,4) - v(1,5) <= 0
w(1,5,1,4) - e(1,4) <= 0
w(5,5,4,5) - v(5,5) <= 0
w(5,5,4,5) - e(4,5) <= 0
v(5,1) - w(1,0,1,5) - w(2,0,2,5) - w(4,0,4,5) - w(6,0,5,6) <= 0
w(1,0,1,5) - v(1,0) <= 0
w(1,0,1,5) - e(1,5) <= 0
w(2,0,2,5) - v(2,0) <= 0
w(2,0,2,5) - e(2,5) <= 0
w(4,0,4,5) - v(4,0) <= 0
w(4,0,4,5) - e(4,5) <= 0
w(6,0,5,6) - v(6,0) <= 0
w(6,0,5,6) - e(5,6) <= 0
v(5,2) - w(1,1,1,5) - w(2,1,2,5) - w(4,1,4,5) - w(6,1,5,6) <= 0
w(1,1,1,5) - v(1,1) <= 0
w(1,1,1,5) - e(1,5) <= 0
w(2,1,2,5) - v(2,1) <= 0
w(2,1,2,5) - e(2,5) <= 0
w(4,1,4,5) - v(4,1) <= 0
w(4,1,4,5) - e(4,5) <= 0
w(6,1,5,6) - v(6,1) <= 0
w(6,1,5,6) - e(5,6) <= 0
v(5,3) - w(1,2,1,5) - w(2,2,2,5) - w(4,2,4,5) - w(6,2,5,6) <= 0
w(1,2,1,5) - v(1,2) <= 0
w(1,2,1,5) - e(1,5) <= 0
w(2,2,2,5) - v(2,2) <= 0
w(2,2,2,5) - e(2,5) <= 0
w(4,2,4,5) - v(4,2) <= 0
w(4,2,4,5) - e(4,5) <= 0
w(6,2,5,6) - v(6,2) <= 0
w(6,2,5,6) - e(5,6) <= 0
v(5,4) - w(1,3,1,5) - w(2,3,2,5) - w(4,3,4,5) - w(6,3,5,6) <= 0
w(1,3,1,5) - v(1,3) <= 0
w(1,3,1,5) - e(1,5) <= 0
w(2,3,2,5) - v(2,3) <= 0
w(2,3,2,5) - e(2,5) <= 0
w(4,3,4,5) - v(4,3) <= 0
w(4,3,4,5) - e(4,5) <= 0
w(6,3,5,6) - v(6,3) <= 0
w(6,3,5,6) - e(5,6) <= 0
v(5,5) - w(1,4,1,5) - w(2,4,2,5) - w(4,4,4,5) - w(6,4,5,6) <= 0
w(1,4,1,5) - v(1,4) <= 0
w(1,4,1,5) - e(1,5) <= 0
w(2,4,2,5) - v(2,4) <= 0
w(2,4,2,5) - e(2,5) <= 0
w(4,4,4,5) - v(4,4) <= 0
w(4,4,4,5) - e(4,5) <= 0
w(6,4,5,6) - v(6,4) <= 0
w(6,4,5,6) - e(5,6) <= 0
v(5,6) - w(1,5,1,5) - w(2,5,2,5) - w(4,5,4,5) - w(6,5,5,6) <= 0
w(1,5,1,5) - v(1,5) <= 0
w(1,5,1,5) - e(1,5) <= 0
w(2,5,2,5) - v(2,5) <= 0
w(2,5,2,5) - e(2,5) <= 0
w(4,5,4,5) - v(4,5) <= 0
w(4,5,4,5) - e(4,5) <= 0
w(6,5,5,6) - v(6,5) <= 0
w(6,5,5,6) - e(5,6) <= 0
v(6,1) - w(2,0,2,6) - w(3,0,3,6) - w(5,0,5,6) <= 0
w(2,0,2,6) - v(2,0) <= 0
w(2,0,2,6) - e(2,6) <= 0
w(3,0,3,6) - v(3,0) <= 0
w(3,0,3,6) - e(3,6) <= 0
w(5,0,5,6) - v(5,0) <= 0
w(5,0,5,6) - e(5,6) <= 0
v(6,2) - w(2,1,2,6) - w(3,1,3,6) - w(5,1,5,6) <= 0
w(2,1,2,6) - v(2,1) <= 0
w(2,1,2,6) - e(2,6) <= 0
w(3,1,3,6) - v(3,1) <= 0
w(3,1,3,6) - e(3,6) <= 0
w(5,1,5,6) - v(5,1) <= 0
w(5,1,5,6) - e(5,6) <= 0
v(6,3) - w(2,2,2,6) - w(3,2,3,6) - w(5,2,5,6) <= 0
w(2,2,2,6) - v(2,2) <= 0
w(2,2,2,6) - e(2,6) <= 0
w(3,2,3,6) - v(3,2) <= 0
w(3,2,3,6) - e(3,6) <= 0
w(5,2,5,6) - v(5,2) <= 0
w(5,2,5,6) - e(5,6) <= 0
v(6,4) - w(2,3,2,6) - w(3,3,3,6) - w(5,3,5,6) <= 0
w(2,3,2,6) - v(2,3) <= 0
w(2,3,2,6) - e(2,6) <= 0
w(3,3,3,6) - v(3,3) <= 0
w(3,3,3,6) - e(3,6) <= 0
w(5,3,5,6) - v(5,3) <= 0
w(5,3,5,6) - e(5,6) <= 0
v(6,5) - w(2,4,2,6) - w(3,4,3,6) - w(5,4,5,6) <= 0
w(2,4,2,6) - v(2,4) <= 0
w(2,4,2,6) - e(2,6) <= 0
w(3,4,3,6) - v(3,4) <= 0
w(3,4,3,6) - e(3,6) <= 0
w(5,4,5,6) - v(5,4) <= 0
w(5,4,5,6) - e(5,6) <= 0
v(6,6) - w(2,5,2,6) - w(3,5,3,6) - w(5,5,5,6) <= 0
w(2,5,2,6) - v(2,5) <= 0
w(2,5,2,6) - e(2,6) <= 0
w(3,5,3,6) - v(3,5) <= 0
w(3,5,3,6) - e(3,6) <= 0
w(5,5,5,6) - v(5,5) <= 0
w(5,5,5,6) - e(5,6) <= 0

v(1,6) = 1
v(0,6) = 1
v(3,6) = 1
v(4,6) = 1

binary
e(0,1)
e(0,2)
e(1,2)
e(1,4)
e(1,5)
e(2,3)
e(2,5)
e(2,6)
e(3,6)
e(4,5)
e(5,6)
v(0,0)
v(0,1)
v(0,2)
v(0,3)
v(0,4)
v(0,5)
v(0,6)
v(1,0)
v(1,1)
v(1,2)
v(1,3)
v(1,4)
v(1,5)
v(1,6)
v(2,0)
v(2,1)
v(2,2)
v(2,3)
v(2,4)
v(2,5)
v(2,6)
v(3,0)
v(3,1)
v(3,2)
v(3,3)
v(3,4)
v(3,5)
v(3,6)
v(4,0)
v(4,1)
v(4,2)
v(4,3)
v(4,4)
v(4,5)
v(4,6)
v(5,0)
v(5,1)
v(5,2)
v(5,3)
v(5,4)
v(5,5)
v(5,6)
v(6,0)
v(6,1)
v(6,2)
v(6,3)
v(6,4)
v(6,5)
v(6,6)
w(1,0,0,1)
w(2,0,0,2)
w(1,1,0,1)
w(2,1,0,2)
w(1,2,0,1)
w(2,2,0,2)
w(1,3,0,1)
w(2,3,0,2)
w(1,4,0,1)
w(2,4,0,2)
w(1,5,0,1)
w(2,5,0,2)
w(0,0,0,2)
w(1,0,1,2)
w(3,0,2,3)
w(5,0,2,5)
w(6,0,2,6)
w(0,1,0,2)
w(1,1,1,2)
w(3,1,2,3)
w(5,1,2,5)
w(6,1,2,6)
w(0,2,0,2)
w(1,2,1,2)
w(3,2,2,3)
w(5,2,2,5)
w(6,2,2,6)
w(0,3,0,2)
w(1,3,1,2)
w(3,3,2,3)
w(5,3,2,5)
w(6,3,2,6)
w(0,4,0,2)
w(1,4,1,2)
w(3,4,2,3)
w(5,4,2,5)
w(6,4,2,6)
w(0,5,0,2)
w(1,5,1,2)
w(3,5,2,3)
w(5,5,2,5)
w(6,5,2,6)
w(2,0,2,3)
w(6,0,3,6)
w(2,1,2,3)
w(6,1,3,6)
w(2,2,2,3)
w(6,2,3,6)
w(2,3,2,3)
w(6,3,3,6)
w(2,4,2,3)
w(6,4,3,6)
w(2,5,2,3)
w(6,5,3,6)
w(1,0,1,4)
w(5,0,4,5)
w(1,1,1,4)
w(5,1,4,5)
w(1,2,1,4)
w(5,2,4,5)
w(1,3,1,4)
w(5,3,4,5)
w(1,4,1,4)
w(5,4,4,5)
w(1,5,1,4)
w(5,5,4,5)
w(1,0,1,5)
w(2,0,2,5)
w(4,0,4,5)
w(6,0,5,6)
w(1,1,1,5)
w(2,1,2,5)
w(4,1,4,5)
w(6,1,5,6)
w(1,2,1,5)
w(2,2,2,5)
w(4,2,4,5)
w(6,2,5,6)
w(1,3,1,5)
w(2,3,2,5)
w(4,3,4,5)
w(6,3,5,6)
w(1,4,1,5)
w(2,4,2,5)
w(4,4,4,5)
w(6,4,5,6)
w(1,5,1,5)
w(2,5,2,5)
w(4,5,4,5)
w(6,5,5,6)
w(2,0,2,6)
w(3,0,3,6)
w(5,0,5,6)
w(2,1,2,6)
w(3,1,3,6)
w(5,1,5,6)
w(2,2,2,6)
w(3,2,3,6)
w(5,2,5,6)
w(2,3,2,6)
w(3,3,3,6)
w(5,3,5,6)
w(2,4,2,6)
w(3,4,3,6)
w(5,4,5,6)
w(2,5,2,6)
w(3,5,3,6)
w(5,5,5,6)
end
