spanning_tree/sample0.sol
solution status: optimal solution found
objective value:                                   10
e(0,2)                                              1 	(obj:1)
e(1,4)                                              1 	(obj:2)
e(1,5)                                              1 	(obj:1)
e(2,5)                                              1 	(obj:1)
e(2,6)                                              1 	(obj:2)
e(3,6)                                              1 	(obj:3)
v(0,6)                                              1 	(obj:0)
v(1,0)                                              1 	(obj:0)
v(1,1)                                              1 	(obj:0)
v(1,2)                                              1 	(obj:0)
v(1,3)                                              1 	(obj:0)
v(1,4)                                              1 	(obj:0)
v(1,5)                                              1 	(obj:0)
v(1,6)                                              1 	(obj:0)
v(2,2)                                              1 	(obj:0)
v(2,3)                                              1 	(obj:0)
v(2,4)                                              1 	(obj:0)
v(2,5)                                              1 	(obj:0)
v(3,4)                                              1 	(obj:0)
v(3,6)                                              1 	(obj:0)
v(4,6)                                              1 	(obj:0)
v(5,1)                                              1 	(obj:0)
v(5,2)                                              1 	(obj:0)
v(5,4)                                              1 	(obj:0)
v(6,3)                                              1 	(obj:0)
v(6,4)                                              1 	(obj:0)
v(6,5)                                              1 	(obj:0)
w(2,5,0,2)                                          1 	(obj:0)
w(5,1,2,5)                                          1 	(obj:0)
w(5,2,2,5)                                          1 	(obj:0)
w(6,3,2,6)                                          1 	(obj:0)
w(5,4,2,5)                                          1 	(obj:0)
w(6,3,3,6)                                          1 	(obj:0)
w(6,5,3,6)                                          1 	(obj:0)
w(1,0,1,4)                                          1 	(obj:0)
w(1,1,1,4)                                          1 	(obj:0)
w(1,2,1,4)                                          1 	(obj:0)
w(1,3,1,4)                                          1 	(obj:0)
w(1,4,1,4)                                          1 	(obj:0)
w(1,5,1,4)                                          1 	(obj:0)
w(1,0,1,5)                                          1 	(obj:0)
w(1,1,1,5)                                          1 	(obj:0)
w(1,2,1,5)                                          1 	(obj:0)
w(1,3,1,5)                                          1 	(obj:0)
w(1,4,1,5)                                          1 	(obj:0)
w(1,5,1,5)                                          1 	(obj:0)
w(2,2,2,6)                                          1 	(obj:0)
w(2,3,2,6)                                          1 	(obj:0)
w(3,4,3,6)                                          1 	(obj:0)
